
Gurobi 13.0.2 (win64) logging started Thu Jul 23 06:27:27 2026

Set parameter LogFile to value "E:\codes\ExactEBRP\results\gf_cplex_equivalent_gurobi_replica_round28\runs\stage2__high_imbalance_seed5203__c3_replica__300s\external\native_logs\R.1.0_lp.gurobi.log"
Gurobi Optimizer version 13.0.2 build v13.0.2rc1 (win64 - Windows 10.0 (19045.2))

CPU model: 12th Gen Intel(R) Core(TM) i7-12700KF, instruction set [SSE2|AVX|AVX2]
Thread count: 12 physical cores, 20 logical processors, using up to 1 threads

Non-default parameters:
TimeLimit  2.6838609329999997e+02
MIPGap  0
MIPGapAbs  0
LogToConsole  0
Threads  1

Optimize a model with 11922 rows, 3380 columns and 67404 nonzeros (Min)
Model fingerprint: 0xc24e8363
Model has 21 linear objective coefficients
Coefficient statistics:
  Matrix range     [2e-02, 2e+04]
  Objective range  [2e-02, 1e+00]
  Bounds range     [5e-01, 4e+03]
  RHS range        [5e-01, 5e+04]

Presolve removed 1614 rows and 94 columns
Presolve time: 0.03s
Presolved: 10308 rows, 3287 columns, 53145 nonzeros

Iteration    Objective       Primal Inf.    Dual Inf.      Time
       0    8.5030420e-01   6.373348e+02   0.000000e+00      0s
    3588    1.9814255e+00   0.000000e+00   0.000000e+00      0s

Solved in 3588 iterations and 0.26 seconds (0.72 work units)
Optimal objective  1.981425502e+00

User-callback calls 3732, time in user-callback 0.00 sec
